c strEdges: 189  randomEdges: 441 
c degrees:  2  3 
c girth: 10 max: 8.032766  
c Hgirth mixed MAXCUT instance
c generated from an undirected graph
c to solve unweighted MaxCut
p cnf 140 1260
140 54 0
-140 -54 0
140 44 0
-140 -44 0
72 4 0
-72 -4 0
72 36 0
-72 -36 0
72 39 0
-72 -39 0
61 25 0
-61 -25 0
61 54 0
-61 -54 0
61 84 0
-61 -84 0
99 64 0
-99 -64 0
99 18 0
-99 -18 0
99 49 0
-99 -49 0
23 84 0
-23 -84 0
23 129 0
-23 -129 0
73 36 0
-73 -36 0
73 63 0
-73 -63 0
73 34 0
-73 -34 0
65 51 0
-65 -51 0
65 122 0
-65 -122 0
65 129 0
-65 -129 0
103 123 0
-103 -123 0
103 98 0
-103 -98 0
103 24 0
-103 -24 0
19 93 0
-19 -93 0
19 25 0
-19 -25 0
19 78 0
-19 -78 0
26 50 0
-26 -50 0
26 27 0
-26 -27 0
81 121 0
-81 -121 0
81 8 0
-81 -8 0
89 18 0
-89 -18 0
89 138 0
-89 -138 0
89 29 0
-89 -29 0
83 38 0
-83 -38 0
83 69 0
-83 -69 0
83 107 0
-83 -107 0
111 128 0
-111 -128 0
111 118 0
-111 -118 0
91 74 0
-91 -74 0
91 121 0
-91 -121 0
91 29 0
-91 -29 0
101 21 0
-101 -21 0
101 62 0
-101 -62 0
101 86 0
-101 -86 0
115 59 0
-115 -59 0
115 136 0
-115 -136 0
115 50 0
-115 -50 0
30 62 0
-30 -62 0
30 38 0
-30 -38 0
102 118 0
-102 -118 0
102 104 0
-102 -104 0
102 123 0
-102 -123 0
95 87 0
-95 -87 0
95 68 0
-95 -68 0
95 34 0
-95 -34 0
40 43 0
-40 -43 0
40 109 0
-40 -109 0
94 5 0
-94 -5 0
94 49 0
-94 -49 0
94 22 0
-94 -22 0
119 44 0
-119 -44 0
119 47 0
-119 -47 0
119 134 0
-119 -134 0
127 129 0
-127 -129 0
127 47 0
-127 -47 0
127 39 0
-127 -39 0
79 66 0
-79 -66 0
79 132 0
-79 -132 0
46 27 0
-46 -27 0
46 93 0
-46 -93 0
46 68 0
-46 -68 0
130 133 0
-130 -133 0
130 76 0
-130 -76 0
130 15 0
-130 -15 0
35 116 0
-35 -116 0
35 66 0
-35 -66 0
35 4 0
-35 -4 0
139 112 0
-139 -112 0
139 59 0
-139 -59 0
55 11 0
-55 -11 0
55 10 0
-55 -10 0
97 49 0
-97 -49 0
97 116 0
-97 -116 0
97 60 0
-97 -60 0
117 48 0
-117 -48 0
117 128 0
-117 -128 0
58 32 0
-58 -32 0
58 112 0
-58 -112 0
58 21 0
-58 -21 0
52 39 0
-52 -39 0
52 86 0
-52 -86 0
52 31 0
-52 -31 0
70 98 0
-70 -98 0
70 107 0
-70 -107 0
70 59 0
-70 -59 0
53 22 0
-53 -22 0
53 21 0
-53 -21 0
53 56 0
-53 -56 0
80 68 0
-80 -68 0
80 22 0
-80 -22 0
71 60 0
-71 -60 0
71 13 0
-71 -13 0
71 24 0
-71 -24 0
67 31 0
-67 -31 0
67 93 0
-67 -93 0
105 63 0
-105 -63 0
105 77 0
-105 -77 0
16 10 0
-16 -10 0
16 74 0
-16 -74 0
16 63 0
-16 -63 0
126 13 0
-126 -13 0
126 109 0
-126 -109 0
126 48 0
-126 -48 0
88 9 0
-88 -9 0
88 87 0
-88 -87 0
88 43 0
-88 -43 0
131 34 0
-131 -34 0
131 64 0
-131 -64 0
131 32 0
-131 -32 0
110 82 0
-110 -82 0
110 84 0
-110 -84 0
110 136 0
-110 -136 0
12 132 0
-12 -132 0
12 57 0
-12 -57 0
12 50 0
-12 -50 0
106 24 0
-106 -24 0
106 10 0
-106 -10 0
20 134 0
-20 -134 0
20 45 0
-20 -45 0
96 29 0
-96 -29 0
96 38 0
-96 -38 0
96 92 0
-96 -92 0
100 56 0
-100 -56 0
100 121 0
-100 -121 0
100 114 0
-100 -114 0
113 78 0
-113 -78 0
113 90 0
-113 -90 0
113 64 0
-113 -64 0
6 1 0
-6 -1 0
6 112 0
-6 -112 0
42 109 0
-42 -109 0
42 44 0
-42 -44 0
42 32 0
-42 -32 0
7 114 0
-7 -114 0
7 45 0
-7 -45 0
7 90 0
-7 -90 0
37 69 0
-37 -69 0
37 54 0
-37 -54 0
37 77 0
-37 -77 0
17 107 0
-17 -107 0
17 8 0
-17 -8 0
17 43 0
-17 -43 0
137 77 0
-137 -77 0
137 104 0
-137 -104 0
137 132 0
-137 -132 0
28 47 0
-28 -47 0
28 123 0
-28 -123 0
120 92 0
-120 -92 0
120 9 0
-120 -9 0
120 66 0
-120 -66 0
125 15 0
-125 -15 0
125 69 0
-125 -69 0
125 122 0
-125 -122 0
14 76 0
-14 -76 0
14 1 0
-14 -1 0
14 60 0
-14 -60 0
33 86 0
-33 -86 0
33 128 0
-33 -128 0
108 57 0
-108 -57 0
108 134 0
-108 -134 0
108 15 0
-108 -15 0
124 136 0
-124 -136 0
124 62 0
-124 -62 0
41 90 0
-41 -90 0
41 82 0
-41 -82 0
41 118 0
-41 -118 0
135 122 0
-135 -122 0
135 11 0
-135 -11 0
135 27 0
-135 -27 0
2 104 0
-2 -104 0
2 5 0
-2 -5 0
85 8 0
-85 -8 0
85 31 0
-85 -31 0
85 133 0
-85 -133 0
3 45 0
-3 -45 0
3 1 0
-3 -1 0
3 87 0
-3 -87 0
75 138 0
-75 -138 0
75 48 0
-75 -48 0
75 51 0
-75 -51 0
117 3 0
-117 -3 0
126 92 0
-126 -92 0
12 104 0
-12 -104 0
130 64 0
-130 -64 0
27 60 0
-27 -60 0
85 134 0
-85 -134 0
29 86 0
-29 -86 0
23 119 0
-23 -119 0
70 4 0
-70 -4 0
91 12 0
-91 -12 0
52 60 0
-52 -60 0
79 28 0
-79 -28 0
88 32 0
-88 -32 0
116 15 0
-116 -15 0
127 124 0
-127 -124 0
30 32 0
-30 -32 0
110 107 0
-110 -107 0
127 68 0
-127 -68 0
127 92 0
-127 -92 0
115 96 0
-115 -96 0
26 24 0
-26 -24 0
110 77 0
-110 -77 0
38 62 0
-38 -62 0
72 2 0
-72 -2 0
99 78 0
-99 -78 0
50 77 0
-50 -77 0
67 88 0
-67 -88 0
3 24 0
-3 -24 0
71 12 0
-71 -12 0
70 28 0
-70 -28 0
102 137 0
-102 -137 0
101 95 0
-101 -95 0
40 100 0
-40 -100 0
37 59 0
-37 -59 0
5 8 0
-5 -8 0
24 92 0
-24 -92 0
48 98 0
-48 -98 0
4 118 0
-4 -118 0
130 11 0
-130 -11 0
1 57 0
-1 -57 0
121 15 0
-121 -15 0
68 86 0
-68 -86 0
89 17 0
-89 -17 0
52 100 0
-52 -100 0
36 136 0
-36 -136 0
113 87 0
-113 -87 0
75 21 0
-75 -21 0
95 27 0
-95 -27 0
103 89 0
-103 -89 0
21 90 0
-21 -90 0
83 5 0
-83 -5 0
99 123 0
-99 -123 0
31 138 0
-31 -138 0
140 10 0
-140 -10 0
72 108 0
-72 -108 0
28 132 0
-28 -132 0
26 110 0
-26 -110 0
37 76 0
-37 -76 0
91 68 0
-91 -68 0
79 110 0
-79 -110 0
120 8 0
-120 -8 0
21 47 0
-21 -47 0
52 37 0
-52 -37 0
54 90 0
-54 -90 0
25 49 0
-25 -49 0
135 38 0
-135 -38 0
94 32 0
-94 -32 0
140 62 0
-140 -62 0
19 38 0
-19 -38 0
137 43 0
-137 -43 0
55 60 0
-55 -60 0
102 22 0
-102 -22 0
58 90 0
-58 -90 0
126 129 0
-126 -129 0
41 15 0
-41 -15 0
127 134 0
-127 -134 0
23 9 0
-23 -9 0
124 138 0
-124 -138 0
83 51 0
-83 -51 0
32 107 0
-32 -107 0
133 78 0
-133 -78 0
62 87 0
-62 -87 0
62 116 0
-62 -116 0
3 66 0
-3 -66 0
13 8 0
-13 -8 0
102 70 0
-102 -70 0
17 69 0
-17 -69 0
19 45 0
-19 -45 0
101 4 0
-101 -4 0
58 22 0
-58 -22 0
95 31 0
-95 -31 0
29 47 0
-29 -47 0
91 8 0
-91 -8 0
79 107 0
-79 -107 0
46 66 0
-46 -66 0
35 139 0
-35 -139 0
36 107 0
-36 -107 0
124 24 0
-124 -24 0
4 39 0
-4 -39 0
88 135 0
-88 -135 0
43 48 0
-43 -48 0
67 17 0
-67 -17 0
28 92 0
-28 -92 0
18 69 0
-18 -69 0
35 58 0
-35 -58 0
5 9 0
-5 -9 0
123 62 0
-123 -62 0
71 107 0
-71 -107 0
61 69 0
-61 -69 0
93 74 0
-93 -74 0
135 86 0
-135 -86 0
38 78 0
-38 -78 0
36 134 0
-36 -134 0
26 42 0
-26 -42 0
61 136 0
-61 -136 0
117 41 0
-117 -41 0
61 114 0
-61 -114 0
103 57 0
-103 -57 0
120 112 0
-120 -112 0
139 21 0
-139 -21 0
30 117 0
-30 -117 0
83 48 0
-83 -48 0
5 78 0
-5 -78 0
40 119 0
-40 -119 0
26 78 0
-26 -78 0
100 8 0
-100 -8 0
2 54 0
-2 -54 0
30 120 0
-30 -120 0
2 133 0
-2 -133 0
105 100 0
-105 -100 0
126 44 0
-126 -44 0
67 1 0
-67 -1 0
89 25 0
-89 -25 0
59 92 0
-59 -92 0
20 107 0
-20 -107 0
66 56 0
-66 -56 0
36 118 0
-36 -118 0
40 88 0
-40 -88 0
108 92 0
-108 -92 0
106 27 0
-106 -27 0
23 112 0
-23 -112 0
18 114 0
-18 -114 0
23 8 0
-23 -8 0
28 1 0
-28 -1 0
54 38 0
-54 -38 0
95 43 0
-95 -43 0
51 66 0
-51 -66 0
139 7 0
-139 -7 0
30 69 0
-30 -69 0
36 104 0
-36 -104 0
97 106 0
-97 -106 0
7 59 0
-7 -59 0
120 14 0
-120 -14 0
96 108 0
-96 -108 0
101 133 0
-101 -133 0
73 97 0
-73 -97 0
133 32 0
-133 -32 0
110 113 0
-110 -113 0
22 104 0
-22 -104 0
53 100 0
-53 -100 0
120 90 0
-120 -90 0
89 64 0
-89 -64 0
13 24 0
-13 -24 0
37 2 0
-37 -2 0
111 134 0
-111 -134 0
99 76 0
-99 -76 0
73 1 0
-73 -1 0
105 68 0
-105 -68 0
75 27 0
-75 -27 0
126 69 0
-126 -69 0
80 105 0
-80 -105 0
64 50 0
-64 -50 0
92 122 0
-92 -122 0
12 25 0
-12 -25 0
102 47 0
-102 -47 0
65 125 0
-65 -125 0
129 77 0
-129 -77 0
16 92 0
-16 -92 0
19 137 0
-19 -137 0
113 86 0
-113 -86 0
119 92 0
-119 -92 0
37 60 0
-37 -60 0
44 29 0
-44 -29 0
112 31 0
-112 -31 0
96 120 0
-96 -120 0
73 93 0
-73 -93 0
44 1 0
-44 -1 0
66 122 0
-66 -122 0
21 43 0
-21 -43 0
23 31 0
-23 -31 0
89 118 0
-89 -118 0
89 60 0
-89 -60 0
139 126 0
-139 -126 0
40 63 0
-40 -63 0
61 113 0
-61 -113 0
18 44 0
-18 -44 0
53 74 0
-53 -74 0
88 62 0
-88 -62 0
101 3 0
-101 -3 0
26 122 0
-26 -122 0
94 127 0
-94 -127 0
80 34 0
-80 -34 0
41 47 0
-41 -47 0
113 120 0
-113 -120 0
18 49 0
-18 -49 0
111 116 0
-111 -116 0
58 129 0
-58 -129 0
51 60 0
-51 -60 0
73 125 0
-73 -125 0
137 56 0
-137 -56 0
105 24 0
-105 -24 0
50 122 0
-50 -122 0
67 75 0
-67 -75 0
81 35 0
-81 -35 0
127 55 0
-127 -55 0
95 124 0
-95 -124 0
95 13 0
-95 -13 0
95 112 0
-95 -112 0
42 129 0
-42 -129 0
106 77 0
-106 -77 0
40 38 0
-40 -38 0
99 30 0
-99 -30 0
19 119 0
-19 -119 0
3 36 0
-3 -36 0
59 1 0
-59 -1 0
36 15 0
-36 -15 0
23 113 0
-23 -113 0
28 122 0
-28 -122 0
29 136 0
-29 -136 0
134 1 0
-134 -1 0
54 122 0
-54 -122 0
124 112 0
-124 -112 0
119 116 0
-119 -116 0
87 57 0
-87 -57 0
18 57 0
-18 -57 0
59 60 0
-59 -60 0
42 4 0
-42 -4 0
46 43 0
-46 -43 0
115 110 0
-115 -110 0
27 8 0
-27 -8 0
4 11 0
-4 -11 0
39 78 0
-39 -78 0
5 82 0
-5 -82 0
20 68 0
-20 -68 0
65 48 0
-65 -48 0
140 47 0
-140 -47 0
52 96 0
-52 -96 0
28 78 0
-28 -78 0
111 60 0
-111 -60 0
78 114 0
-78 -114 0
31 104 0
-31 -104 0
94 106 0
-94 -106 0
140 28 0
-140 -28 0
95 116 0
-95 -116 0
85 39 0
-85 -39 0
37 56 0
-37 -56 0
20 15 0
-20 -15 0
42 28 0
-42 -28 0
44 132 0
-44 -132 0
27 76 0
-27 -76 0
72 45 0
-72 -45 0
132 1 0
-132 -1 0
11 1 0
-11 -1 0
72 24 0
-72 -24 0
65 64 0
-65 -64 0
111 137 0
-111 -137 0
111 13 0
-111 -13 0
52 71 0
-52 -71 0
84 51 0
-84 -51 0
89 70 0
-89 -70 0
26 112 0
-26 -112 0
67 135 0
-67 -135 0
100 118 0
-100 -118 0
16 43 0
-16 -43 0
88 124 0
-88 -124 0
46 137 0
-46 -137 0
83 32 0
-83 -32 0
65 78 0
-65 -78 0
72 56 0
-72 -56 0
10 76 0
-10 -76 0
103 12 0
-103 -12 0
96 36 0
-96 -36 0
25 118 0
-25 -118 0
117 7 0
-117 -7 0
73 65 0
-73 -65 0
61 3 0
-61 -3 0
19 129 0
-19 -129 0
11 10 0
-11 -10 0
89 43 0
-89 -43 0
62 104 0
-62 -104 0
105 128 0
-105 -128 0
12 41 0
-12 -41 0
103 64 0
-103 -64 0
85 15 0
-85 -15 0
70 25 0
-70 -25 0
91 112 0
-91 -112 0
120 132 0
-120 -132 0
51 21 0
-51 -21 0
27 9 0
-27 -9 0
41 50 0
-41 -50 0
93 98 0
-93 -98 0
58 100 0
-58 -100 0
106 47 0
-106 -47 0
93 116 0
-93 -116 0
103 51 0
-103 -51 0
5 132 0
-5 -132 0
40 11 0
-40 -11 0
120 27 0
-120 -27 0
97 1 0
-97 -1 0
7 34 0
-7 -34 0
53 75 0
-53 -75 0
65 81 0
-65 -81 0
64 109 0
-64 -109 0
140 82 0
-140 -82 0
131 45 0
-131 -45 0
70 7 0
-70 -7 0
50 92 0
-50 -92 0
117 69 0
-117 -69 0
83 49 0
-83 -49 0
21 22 0
-21 -22 0
52 133 0
-52 -133 0
117 90 0
-117 -90 0
118 9 0
-118 -9 0
140 66 0
-140 -66 0
42 11 0
-42 -11 0
12 66 0
-12 -66 0
112 136 0
-112 -136 0
22 47 0
-22 -47 0
105 124 0
-105 -124 0
71 104 0
-71 -104 0
37 75 0
-37 -75 0
22 92 0
-22 -92 0
61 24 0
-61 -24 0
71 9 0
-71 -9 0
101 92 0
-101 -92 0
12 114 0
-12 -114 0
55 6 0
-55 -6 0
98 107 0
-98 -107 0
11 76 0
-11 -76 0
109 114 0
-109 -114 0
139 135 0
-139 -135 0
46 31 0
-46 -31 0
121 22 0
-121 -22 0
65 108 0
-65 -108 0
3 29 0
-3 -29 0
54 98 0
-54 -98 0
61 134 0
-61 -134 0
137 114 0
-137 -114 0
40 68 0
-40 -68 0
4 129 0
-4 -129 0
65 57 0
-65 -57 0
7 14 0
-7 -14 0
88 6 0
-88 -6 0
99 110 0
-99 -110 0
2 62 0
-2 -62 0
106 107 0
-106 -107 0
35 36 0
-35 -36 0
73 82 0
-73 -82 0
30 84 0
-30 -84 0
79 37 0
-79 -37 0
120 5 0
-120 -5 0
101 123 0
-101 -123 0
97 105 0
-97 -105 0
108 59 0
-108 -59 0
2 116 0
-2 -116 0
50 86 0
-50 -86 0
87 63 0
-87 -63 0
94 64 0
-94 -64 0
80 133 0
-80 -133 0
137 108 0
-137 -108 0
123 57 0
-123 -57 0
6 118 0
-6 -118 0
112 92 0
-112 -92 0
140 23 0
-140 -23 0
95 139 0
-95 -139 0
89 79 0
-89 -79 0
65 103 0
-65 -103 0
120 32 0
-120 -32 0
15 90 0
-15 -90 0
103 94 0
-103 -94 0
31 107 0
-31 -107 0
5 109 0
-5 -109 0
40 1 0
-40 -1 0
97 28 0
-97 -28 0
83 101 0
-83 -101 0
39 92 0
-39 -92 0
80 49 0
-80 -49 0
110 22 0
-110 -22 0
139 58 0
-139 -58 0
54 5 0
-54 -5 0
41 109 0
-41 -109 0
62 10 0
-62 -10 0
6 62 0
-6 -62 0
91 70 0
-91 -70 0
7 125 0
-7 -125 0
89 69 0
-89 -69 0
134 69 0
-134 -69 0
6 108 0
-6 -108 0
102 133 0
-102 -133 0
32 9 0
-32 -9 0
35 16 0
-35 -16 0
115 74 0
-115 -74 0
40 20 0
-40 -20 0
55 113 0
-55 -113 0
23 131 0
-23 -131 0
97 125 0
-97 -125 0
72 47 0
-72 -47 0
37 92 0
-37 -92 0
127 15 0
-127 -15 0
12 37 0
-12 -37 0
117 93 0
-117 -93 0
30 22 0
-30 -22 0
16 36 0
-16 -36 0
103 108 0
-103 -108 0
79 100 0
-79 -100 0
70 121 0
-70 -121 0
35 92 0
-35 -92 0
101 93 0
-101 -93 0
14 9 0
-14 -9 0
108 124 0
-108 -124 0
100 84 0
-100 -84 0
17 90 0
-17 -90 0
105 131 0
-105 -131 0
19 91 0
-19 -91 0
7 38 0
-7 -38 0
99 11 0
-99 -11 0
6 39 0
-6 -39 0
11 8 0
-11 -8 0
17 135 0
-17 -135 0
112 69 0
-112 -69 0
119 25 0
-119 -25 0
125 32 0
-125 -32 0
105 45 0
-105 -45 0
80 132 0
-80 -132 0
106 22 0
-106 -22 0
40 121 0
-40 -121 0
127 126 0
-127 -126 0
137 33 0
-137 -33 0
130 68 0
-130 -68 0
42 90 0
-42 -90 0
6 8 0
-6 -8 0
